c FILE /home/rafael/Documents/HappySet/MIHS/inputs/happygen/output/graph_scale_free_k5_p0.1_v50_20241127_082439.txt
c SOURCE This is a scale-free graph formed for the happy graph colouring problem.
c DESCRIPTION It was generated using the problem generator of Rhyd Lewis
c
c GRAPH STATS
c Seed                             = 1455816579
c Number of Nodes                  = 50
c Number of colours k              = 5
c Number of pre-assignments        = 5
c Number of links per new node     = 5
c Density                          = 0.191837
c 
c The degrees of nodes 1 to 50, respectively, are as follows 
c [25, 24, 21, 20, 19, 18, 17, 16, 13, 13, 12, 12, 12, 11, 10, 10, 9, 9, 9, 9, 9, 8, 8, 8, 7, 7, 
c  7, 7, 7, 6, 6, 6, 6, 6, 6, 6, 6, 5, 5, 5, 5, 5, 5, 5, 5, 5, 5, 5, 5, 5] 
c  
p edge 50 235 5
e 1 2
e 1 3
e 1 4
e 1 5
e 1 6
e 1 7
e 1 8
e 1 9
e 1 11
e 1 12
e 1 13
e 1 15
e 1 16
e 1 17
e 1 20
e 1 31
e 1 34
e 1 35
e 1 37
e 1 40
e 1 41
e 1 42
e 1 44
e 1 47
e 1 48
e 2 3
e 2 4
e 2 6
e 2 7
e 2 9
e 2 10
e 2 11
e 2 12
e 2 14
e 2 15
e 2 17
e 2 19
e 2 22
e 2 23
e 2 24
e 2 25
e 2 32
e 2 34
e 2 35
e 2 37
e 2 41
e 2 46
e 2 47
e 3 4
e 3 5
e 3 6
e 3 7
e 3 8
e 3 9
e 3 11
e 3 12
e 3 14
e 3 17
e 3 19
e 3 21
e 3 23
e 3 24
e 3 26
e 3 29
e 3 37
e 3 43
e 3 47
e 4 5
e 4 6
e 4 7
e 4 8
e 4 9
e 4 12
e 4 13
e 4 15
e 4 16
e 4 19
e 4 20
e 4 26
e 4 27
e 4 32
e 4 36
e 4 40
e 4 50
e 5 6
e 5 9
e 5 10
e 5 14
e 5 15
e 5 17
e 5 18
e 5 20
e 5 21
e 5 30
e 5 33
e 5 41
e 5 43
e 5 48
e 5 49
e 5 50
e 6 7
e 6 9
e 6 11
e 6 20
e 6 21
e 6 26
e 6 29
e 6 30
e 6 42
e 6 43
e 6 44
e 6 45
e 6 49
e 7 11
e 7 12
e 7 14
e 7 16
e 7 17
e 7 23
e 7 29
e 7 31
e 7 34
e 7 35
e 7 39
e 7 41
e 8 9
e 8 11
e 8 13
e 8 15
e 8 16
e 8 18
e 8 19
e 8 24
e 8 28
e 8 31
e 8 39
e 8 40
e 8 45
e 9 10
e 9 13
e 9 14
e 9 24
e 9 30
e 9 38
e 10 11
e 10 12
e 10 18
e 10 21
e 10 23
e 10 25
e 10 32
e 10 36
e 10 38
e 10 49
e 11 13
e 11 32
e 11 33
e 11 38
e 11 48
e 12 16
e 12 20
e 12 27
e 12 28
e 12 33
e 12 43
e 13 25
e 13 30
e 13 33
e 13 37
e 13 39
e 13 43
e 13 49
e 14 18
e 14 23
e 14 25
e 14 28
e 14 38
e 14 49
e 15 18
e 15 27
e 15 28
e 15 31
e 15 46
e 16 19
e 16 21
e 16 36
e 16 42
e 16 44
e 17 22
e 17 30
e 17 45
e 17 47
e 18 22
e 18 25
e 18 31
e 18 41
e 19 26
e 19 27
e 19 35
e 19 47
e 20 22
e 20 26
e 20 28
e 20 34
e 21 22
e 21 40
e 21 44
e 21 50
e 22 38
e 22 42
e 22 46
e 23 35
e 23 39
e 23 48
e 24 29
e 24 34
e 24 36
e 24 37
e 25 29
e 25 32
e 26 33
e 26 48
e 27 30
e 27 39
e 27 42
e 28 40
e 28 46
e 29 31
e 29 44
e 32 46
e 33 45
e 34 45
e 35 36
e 36 50
e 37 50
n 13 2
n 27 5
n 32 3
n 38 4
n 50 1
